# Instance R206 - 90 dynamic requests - 10 static requests
Dyn   Stat
90    10
ID    RD
1     -1
3     -1
5     -1
7     -1
10    -1
29    -1
31    -1
56    -1
94    -1
97    -1
2     22
4     228
6     221
8     153
9     318
11    5
12    56
13    567
14    1
15    107
16    76
17    547
18    69
19    2
20    158
21    40
22    67
23    120
24    405
25    335
26    123
27    35
28    40
30    151
32    449
33    23
34    6
35    621
36    35
37    57
38    50
39    31
40    119
41    109
42    21
43    294
44    88
45    4
46    432
47    38
48    112
49    71
50    46
51    40
52    25
53    144
54    468
55    251
57    97
58    307
59    18
60    311
61    178
62    10
63    15
64    24
65    33
66    139
67    124
68    230
69    63
70    522
71    153
72    91
73    86
74    498
75    28
76    103
77    514
78    284
79    168
80    381
81    287
82    32
83    113
84    89
85    6
86    1
87    305
88    6
89    535
90    294
91    45
92    5
93    689
95    53
96    90
98    85
99    194
100   62
